NAME : portcgen-27-25
COMMENT : portcgen N=27, seed=25
TYPE : TSP
DIMENSION : 27
EDGE_WEIGHT_TYPE : EUC_2D
NODE_COORD_SECTION
1 -165927 355940
2 -261071 -306325
3 -23045 -270682
4 -190749 9097
5 65736 -7361
6 -15450 102473
7 -129929 -185881
8 102951 -88012
9 241253 180405
10 54758 -86906
11 615899 35821
12 -325850 -323995
13 74701 101168
14 18783 -104275
15 -206028 -156411
16 115469 209222
17 41795 -225980
18 2276 -115186
19 -72217 -54295
20 51838 -19712
21 -42738 -216588
22 -296378 74064
23 -34565 -109903
24 -163008 298731
25 284066 -158280
26 -129804 -47376
27 23965 -337477
